
Gurobi 11.0.3 (linux64) logging started Mon 18 Nov 2024 10:19:08 PM CST

Set parameter LogFile to value "/home/dlcole3/graph_abstraction/hierarchical_graphs/git_storage/CS1/HP_low_reserves/gurobi_logs/serial/logfile_ST16_2.log"

Gurobi 11.0.3 (linux64) logging started Mon 18 Nov 2024 10:23:31 PM CST

Set parameter LogFile to value "/home/dlcole3/graph_abstraction/hierarchical_graphs/git_storage/CS1/HP_low_reserves/gurobi_logs/serial/logfile_ST16_2.log"
Gurobi Optimizer version 11.0.3 build v11.0.3rc0 (linux64 - "Ubuntu 18.04.3 LTS")

CPU model: Intel(R) Xeon(R) CPU E5-2698 v4 @ 2.20GHz, instruction set [SSE2|AVX|AVX2]
Thread count: 40 physical cores, 80 logical processors, using up to 20 threads

Optimize a model with 29168 rows, 50688 columns and 136175 nonzeros
Model fingerprint: 0xa2f1b03c
Variable types: 46944 continuous, 3744 integer (3744 binary)
Coefficient statistics:
  Matrix range     [6e-01, 2e+04]
  Objective range  [2e+00, 2e+04]
  Bounds range     [5e-02, 2e+05]
  RHS range        [5e-02, 7e+03]
Presolve removed 13702 rows and 38544 columns
Presolve time: 0.37s
Presolved: 15466 rows, 12144 columns, 64612 nonzeros
Variable types: 9232 continuous, 2912 integer (2912 binary)
Found heuristic solution: objective 3071855.7256
Found heuristic solution: objective 3025072.8264
Found heuristic solution: objective 2837041.0113

Root relaxation: objective 1.470800e+05, 8882 iterations, 0.57 seconds (0.47 work units)

    Nodes    |    Current Node    |     Objective Bounds      |     Work
 Expl Unexpl |  Obj  Depth IntInf | Incumbent    BestBd   Gap | It/Node Time

     0     0 147079.980    0   64 2837041.01 147079.980  94.8%     -    1s
H    0     0                    163889.47735 147079.980  10.3%     -    2s
     0     0 147079.980    0   64 163889.477 147079.980  10.3%     -    2s
     0     2 147079.980    0   64 163889.477 147079.980  10.3%     -    2s
H   31    52                    163889.47721 147102.346  10.2%  39.4    3s
H   32    52                    163868.13385 147102.346  10.2%  39.6    3s
H   45    52                    163868.13346 147119.758  10.2%  38.8    3s
H   47    52                    162850.38293 147119.758  9.66%  39.7    3s
H   95   112                    159747.28453 147120.142  7.90%  39.6    3s
H  107   112                    149341.81148 147120.142  1.49%  38.8    3s
H  384   375                    148618.68379 147120.142  1.01%  33.7    3s
H  531   433                    148613.85514 147136.522  0.99%  32.6    4s
H  536   433                    148613.85483 147136.522  0.99%  32.5    4s
H  540   433                    148606.61217 147136.522  0.99%  32.4    4s
H  554   458                    148372.35272 147136.522  0.83%  32.7    4s
H  834   609                    148252.48493 147136.522  0.75%  27.4    4s
H  834   609                    148231.58307 147136.522  0.74%  27.4    4s
H  840   609                    148182.38557 147136.522  0.71%  27.2    4s
   859   618 147897.118   18   31 148182.386 147136.522  0.71%  27.2    5s
H 1327   853                    147907.40047 147210.575  0.47%  23.5    5s
H 1742   946                    147870.69918 147210.575  0.45%  21.1    5s
H 1848   972                    147870.14700 147357.147  0.35%  20.8    5s
* 1850   972              53    147869.88813 147357.147  0.35%  20.8    5s
H 2009  1008                    147850.46546 147357.147  0.33%  20.3    7s
H 2210  1077                    147818.44321 147406.744  0.28%  19.8    7s
H 2211  1077                    147818.27930 147406.744  0.28%  19.8    7s
H 2213  1077                    147816.84109 147406.744  0.28%  19.8    7s

Explored 2282 nodes (53953 simplex iterations) in 7.41 seconds (6.05 work units)
Thread count was 20 (of 80 available processors)

Solution count 10: 147817 147817 147850 ... 149342

Optimal solution found (tolerance 3.00e-03)
Best objective 1.478168410894e+05, best bound 1.474067442777e+05, gap 0.2774%

User-callback calls 6869, time in user-callback 0.00 sec
